
Gurobi 12.0.2 (win64, gurobi_cl) logging started Sun Sep 28 17:38:38 2025

Set parameter LogFile to value "gurobi.log"
Using license file C:\Users\bsko6\.conda\envs\PyPSA-GB\gurobi.lic
Restricted license - for non-production use only - expires 2026-11-23

Gurobi 12.0.2 (win64, gurobi_cl) logging started Sun Sep 28 17:46:47 2025

Set parameter LogFile to value "gurobi.log"
